Route #1: 473 543 679 742 781 610 23 524 186 
Route #2: 544 278 511 308 191 712 898 979 915 732 
Route #3: 615 667 808 926 964 988 277 286 824 
Route #4: 488 800 211 359 442 804 715 888 923 355 
Route #5: 856 758 774 478 410 5 477 398 
Route #6: 985 884 305 30 136 900 499 405 548 
Route #7: 997 87 585 365 120 521 996 
Route #8: 836 69 694 796 951 495 420 566 21 583 
Route #9: 924 155 224 590 312 702 199 737 873 576 676 
Route #10: 638 72 573 337 613 947 588 439 751 
Route #11: 130 725 612 904 855 13 78 794 971 628 376 817 
Route #12: 183 36 663 714 561 498 438 22 311 893 266 
Route #13: 981 125 954 404 39 782 256 857 510 
Route #14: 581 933 52 335 368 654 918 530 444 699 59 140 
Route #15: 968 745 218 371 643 143 844 956 661 
Cost: 245391
